unsat
(define-fun skel ((i_7 Bool) (i_9 Bool) (i_3 Bool)) Bool (and i_7 (or (and i_9 i_3) (not (or i_9 i_3)))))
0.08user 0.00system 0:00.08elapsed 100%CPU (0avgtext+0avgdata 26776maxresident)k
0inputs+8outputs (0major+1468minor)pagefaults 0swaps
